Route 1: 69 98 90 65 83 64 56 95 91 92 80 68
Route 2: 88 53 82 99 52 86 57 66
Route 3: 61 93 81 54 72 41 70 100 55
Route 4: 62 94 67 71 50 96
Route 5: 2 5 4 45 46 6 7 78 60
Route 6: 51 76 89 63 85 84 20 24
Route 7: 9 13 15 11 10 14 12 47 17
Route 8: 25 23 21 18 49 19 48 22 74
Route 9: 39 38 35 36 37 40 43 44 42
Route 10: 16 73 79 8 3 1
Route 11: 59 87 97 75 58 77
Route 12: 33 32 30 28 26 27 29 31 34
Vehicles: 12
Distance: 1462.96
